(set-info :source astral)
(set-info :status sat)

(set-option :use-builtin-definitions)

(declare-const x01 Loc)
(declare-const x02 Loc)
(declare-const x03 Loc)
(declare-const x04 Loc)
(declare-const x05 Loc)
(declare-const x06 Loc)
(declare-const x07 Loc)
(declare-const x08 Loc)
(declare-const x09 Loc)
(declare-const x10 Loc)
(declare-const x11 Loc)
(declare-const x12 Loc)
(declare-const x13 Loc)
(declare-const x14 Loc)
(declare-const x15 Loc)
(declare-const x16 Loc)
(declare-const x17 Loc)
(declare-const x18 Loc)
(declare-const x19 Loc)
(declare-const x20 Loc)
(declare-const x21 Loc)
(declare-const x22 Loc)
(declare-const x23 Loc)
(declare-const x24 Loc)
(declare-const x25 Loc)
(declare-const x26 Loc)
(declare-const x27 Loc)
(declare-const x28 Loc)
(declare-const x29 Loc)
(declare-const x30 Loc)
(declare-const x31 Loc)
(declare-const x32 Loc)
(declare-const x33 Loc)
(declare-const x34 Loc)
(declare-const x35 Loc)
(declare-const x36 Loc)
(declare-const x37 Loc)
(declare-const x38 Loc)
(declare-const x39 Loc)
(declare-const x40 Loc)
(declare-const x41 Loc)
(declare-const x42 Loc)
(declare-const x43 Loc)
(declare-const x44 Loc)
(declare-const x45 Loc)
(declare-const x46 Loc)
(declare-const x47 Loc)
(declare-const x48 Loc)
(declare-const x49 Loc)
(declare-const x50 Loc)
(declare-const x51 Loc)
(declare-const x52 Loc)
(declare-const x53 Loc)
(declare-const x54 Loc)
(declare-const x55 Loc)
(declare-const x56 Loc)
(declare-const x57 Loc)
(declare-const x58 Loc)
(declare-const x59 Loc)
(declare-const x60 Loc)
(declare-const x61 Loc)
(declare-const x62 Loc)
(declare-const x63 Loc)

(assert
  (sep
    (pto x01 nil)
    (pto x02 nil)
    (pto x03 nil)
    (pto x04 nil)
    (pto x05 nil)
    (pto x06 nil)
    (pto x07 nil)
    (pto x08 nil)
    (pto x09 nil)
    (pto x10 nil)
    (pto x11 nil)
    (pto x12 nil)
    (pto x13 nil)
    (pto x14 nil)
    (pto x15 nil)
    (pto x16 nil)
    (pto x17 nil)
    (pto x18 nil)
    (pto x19 nil)
    (pto x20 nil)
    (pto x21 nil)
    (pto x22 nil)
    (pto x23 nil)
    (pto x24 nil)
    (pto x25 nil)
    (pto x26 nil)
    (pto x27 nil)
    (pto x28 nil)
    (pto x29 nil)
    (pto x30 nil)
    (pto x31 nil)
    (pto x32 nil)
    (pto x33 nil)
    (pto x34 nil)
    (pto x35 nil)
    (pto x36 nil)
    (pto x37 nil)
    (pto x38 nil)
    (pto x39 nil)
    (pto x40 nil)
    (pto x41 nil)
    (pto x42 nil)
    (pto x43 nil)
    (pto x44 nil)
    (pto x45 nil)
    (pto x46 nil)
    (pto x47 nil)
    (pto x48 nil)
    (pto x49 nil)
    (pto x50 nil)
    (pto x51 nil)
    (pto x52 nil)
    (pto x53 nil)
    (pto x54 nil)
    (pto x55 nil)
    (pto x56 nil)
    (pto x57 nil)
    (pto x58 nil)
    (pto x59 nil)
    (pto x60 nil)
    (pto x61 nil)
    (pto x62 nil)
    (pto x63 nil)
  )
)

(check-sat)
